hw/hw_01_hall_of_fame/hw_01_lp modeling_李韵紫/problem_2c/instance/problem_2c.lp
\ Model Problem_2c
\ LP format - for model browsing. Use MPS format to capture full model detail.
\ Signature: 0xac1ecdcb81a459b6
Maximize
  Product_1 + 2 Product_2
Subject To
 Product_2_Max_Limit: Product_2 <= 20
 3: Product_1 + 3 Product_2 <= 200
 2: 2 Product_1 + 2 Product_2 <= 300
Bounds
End
