hw/hw_01_hall_of_fame/hw_01_lp modeling_李韵紫/problem_2c/instance/problem_2c.mps
* Signature: 0xac1ecdcb81a459b6
NAME Problem_2c
OBJSENSE MAX
ROWS
 N  OBJ
 L  Product_2_Max_Limit
 L  3       
 L  2       
COLUMNS
    Product_1  OBJ       1
    Product_1  3         1
    Product_1  2         2
    Product_2  OBJ       2
    Product_2  Product_2_Max_Limit  1
    Product_2  3         3
    Product_2  2         2
RHS
    RHS1      Product_2_Max_Limit  20
    RHS1      3         200
    RHS1      2         300
BOUNDS
ENDATA
